10J3M/DAT/10J3MUTR-18.dat
10 3
2.856 23.7604
38.2168 32.6364
22.3568 15.9087
32.4152 12.6581
21.6622 25.5743
15.0636 36.7253
20.7331 14.4333
31.5308 21.7932
26.0128 27.4519
1.127 2.2816
53.3058