10J3M/SOL/10J3MUTR-18.sol
solution status: optimal solution found
objective value:                     93.4061675634772
x#1#1                                               1 	(obj:0)
x#2#2                                               1 	(obj:0)
x#3#1                               0.209222641517751 	(obj:0)
x#3#2                               0.217240257051083 	(obj:0)
x#3#3                               0.573537101431166 	(obj:0)
x#4#3                                               1 	(obj:0)
x#6#3                                               1 	(obj:0)
x#7#1                                               1 	(obj:0)
x#8#2                               0.179493700125443 	(obj:0)
x#8#3                               0.304081400593279 	(obj:0)
x#9#1                               0.674633184743574 	(obj:0)
x#9#2                               0.325366815256426 	(obj:0)
x#10#2                                              1 	(obj:0)
z                                    93.4061675634772 	(obj:1)
